[    0,  2660,  2703,  2701,  2906,  2762,  2553,  2655,  2661,  2680,  2857,  2788,  2662,  2656,  2616,  2762,  2597,  2654,  2679,  2701,  2679]
[ 2660,     0,  2703,  2701,  2906,  2762,  2660,  2660,  4033,  2680,  2857,  2788,  4266,  2660,  2660,  2762,  2660,  2660,  2679,  2701,  2679]
[ 2703,  2703,     0,  4372,  4223,  2762,  2703,  2703,  2703,  2703,  2857,  4459,  2703,  2703,  4051,  2762,  2703,  2703,  2703,  4372,  2703]
[ 2701,  2701,  4372,     0,  4457,  2762,  2701,  2701,  2701,  2701,  2857,  4223,  2701,  2701,  4285,  2762,  2701,  2701,  2701,  4136,  2701]
[ 2906,  2906,  4223,  4457,     0,  2906,  2906,  2906,  2906,  2906,  2906,  4544,  2906,  2906,  4136,  2906,  2906,  2906,  2906,  4457,  2906]
[ 2762,  2762,  2762,  2762,  2906,     0,  2762,  2762,  2762,  2762,  2857,  2788,  2762,  2762,  2762,   302,  2762,  2762,  2762,  2762,  2762]
[ 2553,  2660,  2703,  2701,  2906,  2762,     0,  2655,  2661,  2680,  2857,  2788,  2662,  2656,  2616,  2762,  2597,  2654,  2679,  2701,  2679]
[ 2655,  2660,  2703,  2701,  2906,  2762,  2655,     0,  2661,  2680,  2857,  2788,  2662,   239,  2655,  2762,  2655,  2655,  2679,  2701,  2679]
[ 2661,  4033,  2703,  2701,  2906,  2762,  2661,  2661,     0,  2680,  2857,  2788,  4200,  2661,  2661,  2762,  2661,  2661,  2679,  2701,  2679]
[ 2680,  2680,  2703,  2701,  2906,  2762,  2680,  2680,  2680,     0,  4239,  2788,  2680,  2680,  2680,  2762,  2680,  2680,    72,  2701,   240]
[ 2857,  2857,  2857,  2857,  2906,  2857,  2857,  2857,  2857,  4239,     0,  2857,  2857,  2857,  2857,  2857,  2857,  2857,  4238,  2857,  4479]
[ 2788,  2788,  4459,  4223,  4544,  2788,  2788,  2788,  2788,  2788,  2857,     0,  2788,  2788,  4372,  2788,  2788,  2788,  2788,  4223,  2788]
[ 2662,  4266,  2703,  2701,  2906,  2762,  2662,  2662,  4200,  2680,  2857,  2788,     0,  2662,  2662,  2762,  2662,  2662,  2679,  2701,  2679]
[ 2656,  2660,  2703,  2701,  2906,  2762,  2656,   239,  2661,  2680,  2857,  2788,  2662,     0,  2656,  2762,  2656,  2656,  2679,  2701,  2679]
[ 2616,  2660,  4051,  4285,  4136,  2762,  2616,  2655,  2661,  2680,  2857,  4372,  2662,  2656,     0,  2762,  2616,  2654,  2679,  4285,  2679]
[ 2762,  2762,  2762,  2762,  2906,   302,  2762,  2762,  2762,  2762,  2857,  2788,  2762,  2762,  2762,     0,  2762,  2762,  2762,  2762,  2762]
[ 2597,  2660,  2703,  2701,  2906,  2762,  2597,  2655,  2661,  2680,  2857,  2788,  2662,  2656,  2616,  2762,     0,  2654,  2679,  2701,  2679]
[ 2654,  2660,  2703,  2701,  2906,  2762,  2654,  2655,  2661,  2680,  2857,  2788,  2662,  2656,  2654,  2762,  2654,     0,  2679,  2701,  2679]
[ 2679,  2679,  2703,  2701,  2906,  2762,  2679,  2679,  2679,    72,  4238,  2788,  2679,  2679,  2679,  2762,  2679,  2679,     0,  2701,   312]
[ 2701,  2701,  4372,  4136,  4457,  2762,  2701,  2701,  2701,  2701,  2857,  4223,  2701,  2701,  4285,  2762,  2701,  2701,  2701,     0,  2701]
[ 2679,  2679,  2703,  2701,  2906,  2762,  2679,  2679,  2679,   240,  4479,  2788,  2679,  2679,  2679,  2762,  2679,  2679,   312,  2701,     0]